(set-info :smt-lib-version 2.6)
(set-logic QF_S)
(set-info :source |
Generated by: Joel Day, Thorsten Ehlers, Mitja Kulczynski, Federico Mora, Florin Manea, Dirk Nowotka, Danny Poulsen, Zhengyang Lu
Application: Test WOORPJE
Target solver: WOORPJE
Publications: Day, J. D., Ehlers, T., Kulczynski, M., Manea, F., Nowotka, D., & Poulsen, D. B. (2019). On solving word equations using SAT. In RP 2019
Description: Consisting of a system of 100 small random word equations with at most 6 letters, 10 variables and length 60.
|)
(set-info :license "https://creativecommons.org/licenses/by/4.0/")
(set-info :category "random")
(set-info :status unknown)

(declare-fun B () String)
(declare-fun D () String)
(declare-fun E () String)
(declare-fun A () String)
(assert (= (str.++  D D D "a" A A A E B D D A "aa")  (str.++  D A A "aaaaa" A "a" A A "aaaaa" A A "a" A "aaa" A D D "a" A A A "aa" A "a" D "aa" A A D "a" A "aaa") ))
(check-sat)

(exit)
